instances/shortest_path/discrete/shortest_path_6_18.lp
\ Model nohadani_6_18
\ LP format - for model browsing. Use MPS format to capture full model detail.
\ Signature: 0x9d6f60db6d04e09d
Minimize
  59.6824932455071 y[0,1] + 18 y[0,2] + 48 y[0,3] + 34.05877273185281 y[0,4]
   + 39.45883931389772 y[0,5] + 59.6824932455071 y[1,0]
   + 59.6824932455071 y[1,2] + 35.4682957019364 y[1,4] + 18 y[2,0]
   + 59.6824932455071 y[2,1] + 30 y[2,3] + 26.30589287593181 y[2,4]
   + 57.3149195236284 y[2,5] + 48 y[3,0] + 30 y[3,2]
   + 36.76955262170047 y[3,4] + 34.05877273185281 y[4,0]
   + 35.4682957019364 y[4,1] + 26.30589287593181 y[4,2]
   + 36.76955262170047 y[4,3] + 64.19501538281614 y[4,5]
   + 39.45883931389772 y[5,0] + 57.3149195236284 y[5,2]
   + 64.19501538281614 y[5,4] + x[0,1] + x[0,2] + x[0,3] + x[0,4] + x[0,5]
   + x[1,0] + x[1,2] + x[1,4] + x[2,0] + x[2,1] + x[2,3] + x[2,4] + x[2,5]
   + x[3,0] + x[3,2] + x[3,4] + x[4,0] + x[4,1] + x[4,2] + x[4,3] + x[4,5]
   + x[5,0] + x[5,2] + x[5,4] + 5.96824932455071 r[0,1] + 1.8 r[0,2]
   + 4.8 r[0,3] + 3.405877273185281 r[0,4] + 3.945883931389772 r[0,5]
   + 5.96824932455071 r[1,0] + 5.96824932455071 r[1,2]
   + 3.54682957019364 r[1,4] + 1.8 r[2,0] + 5.96824932455071 r[2,1]
   + 3 r[2,3] + 2.630589287593181 r[2,4] + 5.73149195236284 r[2,5]
   + 4.8 r[3,0] + 3 r[3,2] + 3.676955262170047 r[3,4]
   + 3.405877273185281 r[4,0] + 3.54682957019364 r[4,1]
   + 2.630589287593181 r[4,2] + 3.676955262170047 r[4,3]
   + 6.419501538281614 r[4,5] + 3.945883931389772 r[5,0]
   + 5.73149195236284 r[5,2] + 6.419501538281614 r[5,4]
Subject To
 flow_cons_inner_nodes[0]: - y[0,1] - y[0,2] - y[0,3] - y[0,4] - y[0,5]
   + y[1,0] + y[2,0] + y[3,0] + y[4,0] + y[5,0] = 0
 flow_cons_inner_nodes[1]: y[0,1] - y[1,0] - y[1,2] - y[1,4] + y[2,1]
   + y[4,1] = 0
 flow_cons_inner_nodes[2]: y[0,2] + y[1,2] - y[2,0] - y[2,1] - y[2,3]
   - y[2,4] - y[2,5] + y[3,2] + y[4,2] + y[5,2] = 0
 flow_cons_inner_nodes[4]: y[0,4] + y[1,4] + y[2,4] + y[3,4] - y[4,0]
   - y[4,1] - y[4,2] - y[4,3] - y[4,5] + y[5,4] = 0
 flow_cons_source: - y[0,3] - y[2,3] + y[3,0] + y[3,2] + y[3,4] - y[4,3]
   = 1
 flow_cons_target: y[0,5] + y[2,5] + y[4,5] - y[5,0] - y[5,2] - y[5,4] = 1
 primal_lower: 1.748677769069502 x[0,1] + 1.160560449459505 x[0,2]
   + 2.933324457637382 x[0,3] + 3.800431854332738 x[0,4]
   + 3.629226589267715 x[0,5] + 2.67312811361193 x[1,0]
   + 4.666787271468053 x[1,2] + 3.331730566035934 x[1,4]
   + 4.71385994989959 x[2,0] + 0.9962683618998265 x[2,1]
   + 3.253702499435271 x[2,3] + 0.5014733771193133 x[2,4]
   + 2.214743513429088 x[2,5] + 1.842736375841544 x[3,0]
   + 1.529428624287153 x[3,2] + 3.381078827351776 x[3,4]
   + 3.995995653025564 x[4,0] + 1.203818011652984 x[4,1]
   + 4.711799065193093 x[4,2] + 2.260695471987561 x[4,3]
   + 0.1833833023470765 x[4,5] + 0.4598706280150068 x[5,0]
   + 3.557119714281054 x[5,2] + 1.593444151843054 x[5,4] + 74 u[0,1]
   + 83 u[0,2] + 65 u[0,3] + 54 u[0,4] + 59 u[0,5] + 24 u[1,0] + 16 u[1,2]
   + 30 u[1,4] + 68 u[2,0] + 81 u[2,1] + 10 u[2,3] + 10 u[2,4] + 91 u[2,5]
   + 19 u[3,0] + 27 u[3,2] + 7 u[3,4] + 92 u[4,0] + 91 u[4,1] + 84 u[4,2]
   + 29 u[4,3] + 72 u[4,5] + 62 u[5,0] + 87 u[5,2] + 45 u[5,4] <= 116
 mccormick1[0,1]: - u[0,1] + r[0,1] <= 0
 mccormick1[0,2]: - u[0,2] + r[0,2] <= 0
 mccormick1[0,3]: - u[0,3] + r[0,3] <= 0
 mccormick1[0,4]: - u[0,4] + r[0,4] <= 0
 mccormick1[0,5]: - u[0,5] + r[0,5] <= 0
 mccormick1[1,0]: - u[1,0] + r[1,0] <= 0
 mccormick1[1,2]: - u[1,2] + r[1,2] <= 0
 mccormick1[1,4]: - u[1,4] + r[1,4] <= 0
 mccormick1[2,0]: - u[2,0] + r[2,0] <= 0
 mccormick1[2,1]: - u[2,1] + r[2,1] <= 0
 mccormick1[2,3]: - u[2,3] + r[2,3] <= 0
 mccormick1[2,4]: - u[2,4] + r[2,4] <= 0
 mccormick1[2,5]: - u[2,5] + r[2,5] <= 0
 mccormick1[3,0]: - u[3,0] + r[3,0] <= 0
 mccormick1[3,2]: - u[3,2] + r[3,2] <= 0
 mccormick1[3,4]: - u[3,4] + r[3,4] <= 0
 mccormick1[4,0]: - u[4,0] + r[4,0] <= 0
 mccormick1[4,1]: - u[4,1] + r[4,1] <= 0
 mccormick1[4,2]: - u[4,2] + r[4,2] <= 0
 mccormick1[4,3]: - u[4,3] + r[4,3] <= 0
 mccormick1[4,5]: - u[4,5] + r[4,5] <= 0
 mccormick1[5,0]: - u[5,0] + r[5,0] <= 0
 mccormick1[5,2]: - u[5,2] + r[5,2] <= 0
 mccormick1[5,4]: - u[5,4] + r[5,4] <= 0
 mccormick2[0,1]: - y[0,1] + r[0,1] <= 0
 mccormick2[0,2]: - y[0,2] + r[0,2] <= 0
 mccormick2[0,3]: - y[0,3] + r[0,3] <= 0
 mccormick2[0,4]: - y[0,4] + r[0,4] <= 0
 mccormick2[0,5]: - y[0,5] + r[0,5] <= 0
 mccormick2[1,0]: - y[1,0] + r[1,0] <= 0
 mccormick2[1,2]: - y[1,2] + r[1,2] <= 0
 mccormick2[1,4]: - y[1,4] + r[1,4] <= 0
 mccormick2[2,0]: - y[2,0] + r[2,0] <= 0
 mccormick2[2,1]: - y[2,1] + r[2,1] <= 0
 mccormick2[2,3]: - y[2,3] + r[2,3] <= 0
 mccormick2[2,4]: - y[2,4] + r[2,4] <= 0
 mccormick2[2,5]: - y[2,5] + r[2,5] <= 0
 mccormick2[3,0]: - y[3,0] + r[3,0] <= 0
 mccormick2[3,2]: - y[3,2] + r[3,2] <= 0
 mccormick2[3,4]: - y[3,4] + r[3,4] <= 0
 mccormick2[4,0]: - y[4,0] + r[4,0] <= 0
 mccormick2[4,1]: - y[4,1] + r[4,1] <= 0
 mccormick2[4,2]: - y[4,2] + r[4,2] <= 0
 mccormick2[4,3]: - y[4,3] + r[4,3] <= 0
 mccormick2[4,5]: - y[4,5] + r[4,5] <= 0
 mccormick2[5,0]: - y[5,0] + r[5,0] <= 0
 mccormick2[5,2]: - y[5,2] + r[5,2] <= 0
 mccormick2[5,4]: - y[5,4] + r[5,4] <= 0
 mccormick3[0,1]: - y[0,1] - u[0,1] + r[0,1] >= -1
 mccormick3[0,2]: - y[0,2] - u[0,2] + r[0,2] >= -1
 mccormick3[0,3]: - y[0,3] - u[0,3] + r[0,3] >= -1
 mccormick3[0,4]: - y[0,4] - u[0,4] + r[0,4] >= -1
 mccormick3[0,5]: - y[0,5] - u[0,5] + r[0,5] >= -1
 mccormick3[1,0]: - y[1,0] - u[1,0] + r[1,0] >= -1
 mccormick3[1,2]: - y[1,2] - u[1,2] + r[1,2] >= -1
 mccormick3[1,4]: - y[1,4] - u[1,4] + r[1,4] >= -1
 mccormick3[2,0]: - y[2,0] - u[2,0] + r[2,0] >= -1
 mccormick3[2,1]: - y[2,1] - u[2,1] + r[2,1] >= -1
 mccormick3[2,3]: - y[2,3] - u[2,3] + r[2,3] >= -1
 mccormick3[2,4]: - y[2,4] - u[2,4] + r[2,4] >= -1
 mccormick3[2,5]: - y[2,5] - u[2,5] + r[2,5] >= -1
 mccormick3[3,0]: - y[3,0] - u[3,0] + r[3,0] >= -1
 mccormick3[3,2]: - y[3,2] - u[3,2] + r[3,2] >= -1
 mccormick3[3,4]: - y[3,4] - u[3,4] + r[3,4] >= -1
 mccormick3[4,0]: - y[4,0] - u[4,0] + r[4,0] >= -1
 mccormick3[4,1]: - y[4,1] - u[4,1] + r[4,1] >= -1
 mccormick3[4,2]: - y[4,2] - u[4,2] + r[4,2] >= -1
 mccormick3[4,3]: - y[4,3] - u[4,3] + r[4,3] >= -1
 mccormick3[4,5]: - y[4,5] - u[4,5] + r[4,5] >= -1
 mccormick3[5,0]: - y[5,0] - u[5,0] + r[5,0] >= -1
 mccormick3[5,2]: - y[5,2] - u[5,2] + r[5,2] >= -1
 mccormick3[5,4]: - y[5,4] - u[5,4] + r[5,4] >= -1
Bounds
Binaries
 y[0,1] y[0,2] y[0,3] y[0,4] y[0,5] y[1,0] y[1,2] y[1,4] y[2,0] y[2,1]
 y[2,3] y[2,4] y[2,5] y[3,0] y[3,2] y[3,4] y[4,0] y[4,1] y[4,2] y[4,3]
 y[4,5] y[5,0] y[5,2] y[5,4] x[0,1] x[0,2] x[0,3] x[0,4] x[0,5] x[1,0]
 x[1,2] x[1,4] x[2,0] x[2,1] x[2,3] x[2,4] x[2,5] x[3,0] x[3,2] x[3,4]
 x[4,0] x[4,1] x[4,2] x[4,3] x[4,5] x[5,0] x[5,2] x[5,4] u[0,1] u[0,2]
 u[0,3] u[0,4] u[0,5] u[1,0] u[1,2] u[1,4] u[2,0] u[2,1] u[2,3] u[2,4]
 u[2,5] u[3,0] u[3,2] u[3,4] u[4,0] u[4,1] u[4,2] u[4,3] u[4,5] u[5,0]
 u[5,2] u[5,4] r[0,1] r[0,2] r[0,3] r[0,4] r[0,5] r[1,0] r[1,2] r[1,4]
 r[2,0] r[2,1] r[2,3] r[2,4] r[2,5] r[3,0] r[3,2] r[3,4] r[4,0] r[4,1]
 r[4,2] r[4,3] r[4,5] r[5,0] r[5,2] r[5,4]
End
